p cnf 11 22 
c Factors encoded in variables 1-6 and 7-11
c Target number: 1271
c Factors: 41 x 31
4 -3 0
-5 -9 0
5 -3 9 0
-2 0
11 0
1 0
7 0
5 4 3 0
-5 4 -3 9 0
-5 9 0
-4 -3 0
8 0
10 0
4 -9 0
-3 -9 0
-5 -3 -9 0
-5 -4 -3 0
3 9 0
6 0
4 3 0
-5 -4 0
5 4 9 0
